Version identifier: 22.1.0.0 | 2022-03-09 | 1a383f8ce
CPXPARAM_Read_DataCheck                          1
1 of 1 MIP starts provided solutions.
MIP start 'm1' defined initial solution with objective 42.0000.
Tried aggregator 3 times.
MIP Presolve eliminated 36670 rows and 4373 columns.
MIP Presolve modified 547 coefficients.
Aggregator did 33140 substitutions.
Reduced MIP has 4656 rows, 34223 columns, and 73131 nonzeros.
Reduced MIP has 34195 binaries, 28 generals, 0 SOSs, and 0 indicators.
Presolve time = 0.33 sec. (346.99 ticks)
Tried aggregator 1 time.
Detecting symmetries...
Reduced MIP has 4656 rows, 34223 columns, and 73131 nonzeros.
Reduced MIP has 34195 binaries, 28 generals, 0 SOSs, and 0 indicators.
Presolve time = 0.06 sec. (54.53 ticks)
Probing fixed 42 vars, tightened 0 bounds.
Probing changed sense of 10 constraints.
Probing time = 0.07 sec. (11.72 ticks)
Clique table members: 69608.
MIP emphasis: balance optimality and feasibility.
MIP search method: dynamic search.
Parallel mode: deterministic, using up to 8 threads.
Root relaxation solution time = 0.38 sec. (255.66 ticks)

        Nodes                                         Cuts/
   Node  Left     Objective  IInf  Best Integer    Best Bound    ItCnt     Gap

*     0+    0                           42.0000        0.0000           100.00%
      0     0       28.3564  3236       42.0000       28.3564     4079   32.48%
      0     0        cutoff             42.0000                   4092    0.00%
Elapsed time = 2.51 sec. (1553.34 ticks, tree = 0.01 MB, solutions = 1)

Zero-half cuts applied:  37
Gomory fractional cuts applied:  14

Root node processing (before b&c):
  Real time             =    2.51 sec. (1555.74 ticks)
Parallel b&c, 8 threads:
  Real time             =    0.00 sec. (0.00 ticks)
  Sync time (average)   =    0.00 sec.
  Wait time (average)   =    0.00 sec.
                          ------------
Total (root+branch&cut) =    2.51 sec. (1555.74 ticks)
